32      4       
10      10      10      10      
0       0       0       0       0       7       2       3       4       5       6       10      16      
10      1       0       1       1       5       8       9       11      13      14      
6       3       1       0       5       4       11      14      15      19      
10      7       0       4       6       2       7       13      
10      0       7       4       6       2       8       11      
5       4       6       0       1       3       12      13      19      
8       3       1       6       0       2       11      19      
10      5       4       7       0       2       12      19      
7       5       4       2       0       2       12      19      
2       0       5       4       2       4       17      19      20      23      
6       4       3       0       4       2       12      24      
5       4       4       5       0       3       17      20      23      
6       3       3       6       0       3       17      20      23      
3       0       4       4       6       3       17      20      23      
8       5       3       0       5       3       17      20      24      
5       5       5       4       0       3       18      19      25      
6       4       0       3       3       3       18      22      25      
10      5       7       6       0       2       21      31      
9       7       5       4       0       2       21      24      
3       7       0       3       4       1       21      
7       4       7       0       2       4       26      28      29      30      
6       3       0       5       3       4       26      28      29      30      
5       0       4       4       3       4       26      28      29      31      
9       1       4       0       1       4       26      28      29      30      
9       3       3       1       0       3       27      28      29      
1       3       5       0       8       1       27      
2       3       2       0       6       1       32      
5       6       5       0       3       1       32      
3       4       0       3       5       1       32      
8       3       1       0       5       1       32      
2       2       3       0       5       1       32      
0       0       0       0       0       0       
